branch-and-cut/resultados/I080/i080-014.sol
1397
8
4 30
15 30
1 15
15 6
2 12
15 3
12 5
12 30
